c 176_4_checker_5cl.cnf
c
c field = 176
c formula set type = 4_checker_5cl
c
p cnf 5 10
352 
354 
356 
358 
-348 
353 
355 
357 
359 
-349 
320 
380 
410 
440 
-290 
321 
381 
411 
441 
-291 
318 
382 
414 
446 
-286 
319 
383 
415 
447 
-287 
238 
266 
294 
322 
-378 
239 
267 
295 
323 
-379 
322 
378 
406 
434 
-294 
323 
379 
407 
435 
-295 
